(set-option :count-models true)
(set-logic QF_BV)
(set-option :print-clauses-file "./counts.cnf")(set-info :smt-lib-version 2.0)
(declare-fun rho_1 () (_ BitVec 32))
(declare-fun rho_2 () (_ BitVec 32))
(declare-fun phi_1 () Bool)
(declare-fun phi_2 () Bool)
(declare-fun oliid6 () (_ BitVec 32))
(assert (= rho_1 (! oliid6 :named v1)))
(assert (= rho_2 oliid6))
(assert (= phi_1 (bvult oliid6 #b00000000000000011000011010100000)))
(assert (= phi_2 (bvult oliid6 #b00000000000000011000011010100000)))
(assert (and (= rho_1 rho_2) (and phi_1 phi_2)))
(count-models v1)
(exit)